; benchmark generated from python API
(set-info :status unknown)
(declare-fun makespan () Int)
(declare-fun y_0 () Int)
(declare-fun x_0 () Int)
(declare-fun ud_1_3 () Bool)
(declare-fun y_1 () Int)
(declare-fun x_1 () Int)
(declare-fun lr_2_1 () Bool)
(declare-fun y_2 () Int)
(declare-fun x_2 () Int)
(declare-fun y_3 () Int)
(declare-fun x_3 () Int)
(declare-fun ud_4_3 () Bool)
(declare-fun y_4 () Int)
(declare-fun x_4 () Int)
(declare-fun y_5 () Int)
(declare-fun x_5 () Int)
(declare-fun ud_6_3 () Bool)
(declare-fun y_6 () Int)
(declare-fun x_6 () Int)
(declare-fun ud_7_3 () Bool)
(declare-fun y_7 () Int)
(declare-fun x_7 () Int)
(declare-fun ud_8_3 () Bool)
(declare-fun y_8 () Int)
(declare-fun x_8 () Int)
(declare-fun ud_9_3 () Bool)
(declare-fun y_9 () Int)
(declare-fun x_9 () Int)
(declare-fun ud_10_3 () Bool)
(declare-fun y_10 () Int)
(declare-fun x_10 () Int)
(declare-fun y_11 () Int)
(declare-fun x_11 () Int)
(declare-fun lr_1_2 () Bool)
(declare-fun ud_1_2 () Bool)
(declare-fun ud_2_1 () Bool)
(declare-fun lr_1_3 () Bool)
(declare-fun lr_3_1 () Bool)
(declare-fun ud_3_1 () Bool)
(declare-fun lr_1_4 () Bool)
(declare-fun ud_1_4 () Bool)
(declare-fun lr_4_1 () Bool)
(declare-fun ud_4_1 () Bool)
(declare-fun lr_1_5 () Bool)
(declare-fun ud_1_5 () Bool)
(declare-fun lr_5_1 () Bool)
(declare-fun ud_5_1 () Bool)
(declare-fun lr_1_6 () Bool)
(declare-fun ud_1_6 () Bool)
(declare-fun lr_6_1 () Bool)
(declare-fun ud_6_1 () Bool)
(declare-fun lr_1_7 () Bool)
(declare-fun ud_1_7 () Bool)
(declare-fun lr_7_1 () Bool)
(declare-fun ud_7_1 () Bool)
(declare-fun lr_1_8 () Bool)
(declare-fun ud_1_8 () Bool)
(declare-fun lr_8_1 () Bool)
(declare-fun ud_8_1 () Bool)
(declare-fun lr_1_9 () Bool)
(declare-fun ud_1_9 () Bool)
(declare-fun lr_9_1 () Bool)
(declare-fun ud_9_1 () Bool)
(declare-fun lr_1_10 () Bool)
(declare-fun ud_1_10 () Bool)
(declare-fun lr_10_1 () Bool)
(declare-fun ud_10_1 () Bool)
(declare-fun lr_1_11 () Bool)
(declare-fun ud_1_11 () Bool)
(declare-fun lr_11_1 () Bool)
(declare-fun ud_11_1 () Bool)
(declare-fun lr_1_12 () Bool)
(declare-fun ud_1_12 () Bool)
(declare-fun lr_12_1 () Bool)
(declare-fun ud_12_1 () Bool)
(declare-fun lr_2_3 () Bool)
(declare-fun ud_2_3 () Bool)
(declare-fun lr_3_2 () Bool)
(declare-fun ud_3_2 () Bool)
(declare-fun lr_2_4 () Bool)
(declare-fun ud_2_4 () Bool)
(declare-fun lr_4_2 () Bool)
(declare-fun ud_4_2 () Bool)
(declare-fun lr_2_5 () Bool)
(declare-fun ud_2_5 () Bool)
(declare-fun lr_5_2 () Bool)
(declare-fun ud_5_2 () Bool)
(declare-fun lr_2_6 () Bool)
(declare-fun ud_2_6 () Bool)
(declare-fun lr_6_2 () Bool)
(declare-fun ud_6_2 () Bool)
(declare-fun lr_2_7 () Bool)
(declare-fun ud_2_7 () Bool)
(declare-fun lr_7_2 () Bool)
(declare-fun ud_7_2 () Bool)
(declare-fun lr_2_8 () Bool)
(declare-fun ud_2_8 () Bool)
(declare-fun lr_8_2 () Bool)
(declare-fun ud_8_2 () Bool)
(declare-fun lr_2_9 () Bool)
(declare-fun ud_2_9 () Bool)
(declare-fun lr_9_2 () Bool)
(declare-fun ud_9_2 () Bool)
(declare-fun lr_2_10 () Bool)
(declare-fun ud_2_10 () Bool)
(declare-fun lr_10_2 () Bool)
(declare-fun ud_10_2 () Bool)
(declare-fun lr_2_11 () Bool)
(declare-fun ud_2_11 () Bool)
(declare-fun lr_11_2 () Bool)
(declare-fun ud_11_2 () Bool)
(declare-fun lr_2_12 () Bool)
(declare-fun ud_2_12 () Bool)
(declare-fun lr_12_2 () Bool)
(declare-fun ud_12_2 () Bool)
(declare-fun lr_3_4 () Bool)
(declare-fun ud_3_4 () Bool)
(declare-fun lr_4_3 () Bool)
(declare-fun lr_3_5 () Bool)
(declare-fun ud_3_5 () Bool)
(declare-fun lr_5_3 () Bool)
(declare-fun ud_5_3 () Bool)
(declare-fun lr_3_6 () Bool)
(declare-fun ud_3_6 () Bool)
(declare-fun lr_6_3 () Bool)
(declare-fun lr_3_7 () Bool)
(declare-fun ud_3_7 () Bool)
(declare-fun lr_7_3 () Bool)
(declare-fun lr_3_8 () Bool)
(declare-fun ud_3_8 () Bool)
(declare-fun lr_8_3 () Bool)
(declare-fun lr_3_9 () Bool)
(declare-fun ud_3_9 () Bool)
(declare-fun lr_9_3 () Bool)
(declare-fun lr_3_10 () Bool)
(declare-fun ud_3_10 () Bool)
(declare-fun lr_10_3 () Bool)
(declare-fun lr_3_11 () Bool)
(declare-fun ud_3_11 () Bool)
(declare-fun lr_11_3 () Bool)
(declare-fun ud_11_3 () Bool)
(declare-fun lr_3_12 () Bool)
(declare-fun ud_3_12 () Bool)
(declare-fun lr_12_3 () Bool)
(declare-fun ud_12_3 () Bool)
(declare-fun lr_4_5 () Bool)
(declare-fun ud_4_5 () Bool)
(declare-fun lr_5_4 () Bool)
(declare-fun ud_5_4 () Bool)
(declare-fun lr_4_6 () Bool)
(declare-fun ud_4_6 () Bool)
(declare-fun lr_6_4 () Bool)
(declare-fun ud_6_4 () Bool)
(declare-fun lr_4_7 () Bool)
(declare-fun ud_4_7 () Bool)
(declare-fun lr_7_4 () Bool)
(declare-fun ud_7_4 () Bool)
(declare-fun lr_4_8 () Bool)
(declare-fun ud_4_8 () Bool)
(declare-fun lr_8_4 () Bool)
(declare-fun ud_8_4 () Bool)
(declare-fun lr_4_9 () Bool)
(declare-fun ud_4_9 () Bool)
(declare-fun lr_9_4 () Bool)
(declare-fun ud_9_4 () Bool)
(declare-fun lr_4_10 () Bool)
(declare-fun ud_4_10 () Bool)
(declare-fun lr_10_4 () Bool)
(declare-fun ud_10_4 () Bool)
(declare-fun lr_4_11 () Bool)
(declare-fun ud_4_11 () Bool)
(declare-fun lr_11_4 () Bool)
(declare-fun ud_11_4 () Bool)
(declare-fun lr_4_12 () Bool)
(declare-fun ud_4_12 () Bool)
(declare-fun lr_12_4 () Bool)
(declare-fun ud_12_4 () Bool)
(declare-fun lr_5_6 () Bool)
(declare-fun ud_5_6 () Bool)
(declare-fun lr_6_5 () Bool)
(declare-fun ud_6_5 () Bool)
(declare-fun lr_5_7 () Bool)
(declare-fun ud_5_7 () Bool)
(declare-fun lr_7_5 () Bool)
(declare-fun ud_7_5 () Bool)
(declare-fun lr_5_8 () Bool)
(declare-fun ud_5_8 () Bool)
(declare-fun lr_8_5 () Bool)
(declare-fun ud_8_5 () Bool)
(declare-fun lr_5_9 () Bool)
(declare-fun ud_5_9 () Bool)
(declare-fun lr_9_5 () Bool)
(declare-fun ud_9_5 () Bool)
(declare-fun lr_5_10 () Bool)
(declare-fun ud_5_10 () Bool)
(declare-fun lr_10_5 () Bool)
(declare-fun ud_10_5 () Bool)
(declare-fun lr_5_11 () Bool)
(declare-fun ud_5_11 () Bool)
(declare-fun lr_11_5 () Bool)
(declare-fun ud_11_5 () Bool)
(declare-fun lr_5_12 () Bool)
(declare-fun ud_5_12 () Bool)
(declare-fun lr_12_5 () Bool)
(declare-fun ud_12_5 () Bool)
(declare-fun lr_6_7 () Bool)
(declare-fun ud_6_7 () Bool)
(declare-fun lr_7_6 () Bool)
(declare-fun ud_7_6 () Bool)
(declare-fun lr_6_8 () Bool)
(declare-fun ud_6_8 () Bool)
(declare-fun lr_8_6 () Bool)
(declare-fun ud_8_6 () Bool)
(declare-fun lr_6_9 () Bool)
(declare-fun ud_6_9 () Bool)
(declare-fun lr_9_6 () Bool)
(declare-fun ud_9_6 () Bool)
(declare-fun lr_6_10 () Bool)
(declare-fun ud_6_10 () Bool)
(declare-fun lr_10_6 () Bool)
(declare-fun ud_10_6 () Bool)
(declare-fun lr_6_11 () Bool)
(declare-fun ud_6_11 () Bool)
(declare-fun lr_11_6 () Bool)
(declare-fun ud_11_6 () Bool)
(declare-fun lr_6_12 () Bool)
(declare-fun ud_6_12 () Bool)
(declare-fun lr_12_6 () Bool)
(declare-fun ud_12_6 () Bool)
(declare-fun lr_7_8 () Bool)
(declare-fun ud_7_8 () Bool)
(declare-fun lr_8_7 () Bool)
(declare-fun ud_8_7 () Bool)
(declare-fun lr_7_9 () Bool)
(declare-fun ud_7_9 () Bool)
(declare-fun lr_9_7 () Bool)
(declare-fun ud_9_7 () Bool)
(declare-fun lr_7_10 () Bool)
(declare-fun ud_7_10 () Bool)
(declare-fun lr_10_7 () Bool)
(declare-fun ud_10_7 () Bool)
(declare-fun lr_7_11 () Bool)
(declare-fun ud_7_11 () Bool)
(declare-fun lr_11_7 () Bool)
(declare-fun ud_11_7 () Bool)
(declare-fun lr_7_12 () Bool)
(declare-fun ud_7_12 () Bool)
(declare-fun lr_12_7 () Bool)
(declare-fun ud_12_7 () Bool)
(declare-fun lr_8_9 () Bool)
(declare-fun ud_8_9 () Bool)
(declare-fun lr_9_8 () Bool)
(declare-fun ud_9_8 () Bool)
(declare-fun lr_8_10 () Bool)
(declare-fun ud_8_10 () Bool)
(declare-fun lr_10_8 () Bool)
(declare-fun ud_10_8 () Bool)
(declare-fun lr_8_11 () Bool)
(declare-fun ud_8_11 () Bool)
(declare-fun lr_11_8 () Bool)
(declare-fun ud_11_8 () Bool)
(declare-fun lr_8_12 () Bool)
(declare-fun ud_8_12 () Bool)
(declare-fun lr_12_8 () Bool)
(declare-fun ud_12_8 () Bool)
(declare-fun lr_9_10 () Bool)
(declare-fun ud_9_10 () Bool)
(declare-fun lr_10_9 () Bool)
(declare-fun ud_10_9 () Bool)
(declare-fun lr_9_11 () Bool)
(declare-fun ud_9_11 () Bool)
(declare-fun lr_11_9 () Bool)
(declare-fun ud_11_9 () Bool)
(declare-fun lr_9_12 () Bool)
(declare-fun ud_9_12 () Bool)
(declare-fun lr_12_9 () Bool)
(declare-fun ud_12_9 () Bool)
(declare-fun lr_10_11 () Bool)
(declare-fun ud_10_11 () Bool)
(declare-fun lr_11_10 () Bool)
(declare-fun ud_11_10 () Bool)
(declare-fun lr_10_12 () Bool)
(declare-fun ud_10_12 () Bool)
(declare-fun lr_12_10 () Bool)
(declare-fun ud_12_10 () Bool)
(declare-fun lr_11_12 () Bool)
(declare-fun ud_11_12 () Bool)
(declare-fun lr_12_11 () Bool)
(declare-fun ud_12_11 () Bool)
(assert
 (>= makespan 17))
(assert
 (<= makespan 22))
(assert
 (let ((?x273 (+ y_0 6)))
 (<= ?x273 makespan)))
(assert
 (let ((?x257 (+ x_0 7)))
 (<= ?x257 17)))
(assert
 (>= x_0 0))
(assert
 (<= y_0 16))
(assert
 (>= y_0 0))
(assert
 (<= x_0 5))
(assert
 (= ud_1_3 false))
(assert
 (let ((?x239 (+ y_1 3)))
 (<= ?x239 makespan)))
(assert
 (let ((?x235 (+ x_1 7)))
 (<= ?x235 17)))
(assert
 (>= x_1 0))
(assert
 (<= y_1 19))
(assert
 (>= y_1 0))
(assert
 (= lr_2_1 false))
(assert
 (let ((?x206 (+ y_2 14)))
 (<= ?x206 makespan)))
(assert
 (let ((?x199 (+ x_2 4)))
 (<= ?x199 17)))
(assert
 (>= x_2 0))
(assert
 (<= y_2 8))
(assert
 (>= y_2 0))
(assert
 (<= y_2 4))
(assert
 (let ((?x181 (+ y_3 8)))
 (<= ?x181 makespan)))
(assert
 (let ((?x177 (+ x_3 4)))
 (<= ?x177 17)))
(assert
 (>= x_3 0))
(assert
 (<= y_3 14))
(assert
 (>= y_3 0))
(assert
 (= ud_4_3 false))
(assert
 (let ((?x92 (+ y_4 3)))
 (<= ?x92 makespan)))
(assert
 (let ((?x144 (+ x_4 4)))
 (<= ?x144 17)))
(assert
 (>= x_4 0))
(assert
 (<= y_4 19))
(assert
 (>= y_4 0))
(assert
 (let ((?x117 (+ y_5 9)))
 (<= ?x117 makespan)))
(assert
 (let ((?x114 (+ x_5 3)))
 (<= ?x114 17)))
(assert
 (>= x_5 0))
(assert
 (<= y_5 13))
(assert
 (>= y_5 0))
(assert
 (= ud_6_3 false))
(assert
 (let ((?x87 (+ y_6 8)))
 (<= ?x87 makespan)))
(assert
 (let ((?x81 (+ x_6 3)))
 (<= ?x81 17)))
(assert
 (>= x_6 0))
(assert
 (<= y_6 14))
(assert
 (>= y_6 0))
(assert
 (= ud_7_3 false))
(assert
 (let ((?x421 (+ y_7 7)))
 (<= ?x421 makespan)))
(assert
 (let ((?x423 (+ x_7 3)))
 (<= ?x423 17)))
(assert
 (>= x_7 0))
(assert
 (<= y_7 15))
(assert
 (>= y_7 0))
(assert
 (= ud_8_3 false))
(assert
 (let ((?x435 (+ y_8 6)))
 (<= ?x435 makespan)))
(assert
 (let ((?x437 (+ x_8 3)))
 (<= ?x437 17)))
(assert
 (>= x_8 0))
(assert
 (<= y_8 16))
(assert
 (>= y_8 0))
(assert
 (= ud_9_3 false))
(assert
 (let ((?x448 (+ y_9 5)))
 (<= ?x448 makespan)))
(assert
 (let ((?x450 (+ x_9 3)))
 (<= ?x450 17)))
(assert
 (>= x_9 0))
(assert
 (<= y_9 17))
(assert
 (>= y_9 0))
(assert
 (= ud_10_3 false))
(assert
 (let ((?x461 (+ y_10 4)))
 (<= ?x461 makespan)))
(assert
 (let ((?x463 (+ x_10 3)))
 (<= ?x463 17)))
(assert
 (>= x_10 0))
(assert
 (<= y_10 18))
(assert
 (>= y_10 0))
(assert
 (let ((?x473 (+ y_11 3)))
 (<= ?x473 makespan)))
(assert
 (let ((?x475 (+ x_11 3)))
 (<= ?x475 17)))
(assert
 (>= x_11 0))
(assert
 (<= y_11 19))
(assert
 (>= y_11 0))
(assert
 (= (<= (+ x_0 7) x_1) lr_1_2))
(assert
 (= (<= (+ y_0 6) y_1) ud_1_2))
(assert
 (= (<= (+ x_1 7) x_0) lr_2_1))
(assert
 (= (<= (+ y_1 3) y_0) ud_2_1))
(assert
 (or lr_1_2 lr_2_1 ud_1_2 ud_2_1))
(assert
 (let (($x510 (< makespan 9)))
 (=> $x510 (= ud_1_2 false))))
(assert
 (let (($x510 (< makespan 9)))
 (=> $x510 (= ud_2_1 false))))
(assert
 (= (<= (+ x_0 7) x_2) lr_1_3))
(assert
 (= (<= (+ y_0 6) y_2) ud_1_3))
(assert
 (= (<= (+ x_2 4) x_0) lr_3_1))
(assert
 (= (<= (+ y_2 14) y_0) ud_3_1))
(assert
 (or lr_1_3 lr_3_1 ud_1_3 ud_3_1))
(assert
 (let (($x242 (= ud_1_3 false)))
 (let (($x547 (< makespan 20)))
 (=> $x547 $x242))))
(assert
 (let (($x547 (< makespan 20)))
 (=> $x547 (= ud_3_1 false))))
(assert
 (= (<= (+ x_0 7) x_3) lr_1_4))
(assert
 (= (<= (+ y_0 6) y_3) ud_1_4))
(assert
 (= (<= (+ x_3 4) x_0) lr_4_1))
(assert
 (= (<= (+ y_3 8) y_0) ud_4_1))
(assert
 (or lr_1_4 lr_4_1 ud_1_4 ud_4_1))
(assert
 (let (($x581 (< makespan 14)))
 (=> $x581 (= ud_1_4 false))))
(assert
 (let (($x581 (< makespan 14)))
 (=> $x581 (= ud_4_1 false))))
(assert
 (= (<= (+ x_0 7) x_4) lr_1_5))
(assert
 (= (<= (+ y_0 6) y_4) ud_1_5))
(assert
 (= (<= (+ x_4 4) x_0) lr_5_1))
(assert
 (= (<= (+ y_4 3) y_0) ud_5_1))
(assert
 (or lr_1_5 lr_5_1 ud_1_5 ud_5_1))
(assert
 (let (($x510 (< makespan 9)))
 (=> $x510 (= ud_1_5 false))))
(assert
 (let (($x510 (< makespan 9)))
 (=> $x510 (= ud_5_1 false))))
(assert
 (= (<= (+ x_0 7) x_5) lr_1_6))
(assert
 (= (<= (+ y_0 6) y_5) ud_1_6))
(assert
 (= (<= (+ x_5 3) x_0) lr_6_1))
(assert
 (= (<= (+ y_5 9) y_0) ud_6_1))
(assert
 (or lr_1_6 lr_6_1 ud_1_6 ud_6_1))
(assert
 (let (($x646 (< makespan 15)))
 (=> $x646 (= ud_1_6 false))))
(assert
 (let (($x646 (< makespan 15)))
 (=> $x646 (= ud_6_1 false))))
(assert
 (= (<= (+ x_0 7) x_6) lr_1_7))
(assert
 (= (<= (+ y_0 6) y_6) ud_1_7))
(assert
 (= (<= (+ x_6 3) x_0) lr_7_1))
(assert
 (= (<= (+ y_6 8) y_0) ud_7_1))
(assert
 (or lr_1_7 lr_7_1 ud_1_7 ud_7_1))
(assert
 (let (($x581 (< makespan 14)))
 (=> $x581 (= ud_1_7 false))))
(assert
 (let (($x581 (< makespan 14)))
 (=> $x581 (= ud_7_1 false))))
(assert
 (= (<= (+ x_0 7) x_7) lr_1_8))
(assert
 (= (<= (+ y_0 6) y_7) ud_1_8))
(assert
 (= (<= (+ x_7 3) x_0) lr_8_1))
(assert
 (= (<= (+ y_7 7) y_0) ud_8_1))
(assert
 (or lr_1_8 lr_8_1 ud_1_8 ud_8_1))
(assert
 (let (($x711 (< makespan 13)))
 (=> $x711 (= ud_1_8 false))))
(assert
 (let (($x711 (< makespan 13)))
 (=> $x711 (= ud_8_1 false))))
(assert
 (= (<= (+ x_0 7) x_8) lr_1_9))
(assert
 (= (<= (+ y_0 6) y_8) ud_1_9))
(assert
 (= (<= (+ x_8 3) x_0) lr_9_1))
(assert
 (= (<= (+ y_8 6) y_0) ud_9_1))
(assert
 (or lr_1_9 lr_9_1 ud_1_9 ud_9_1))
(assert
 (let (($x747 (< makespan 12)))
 (=> $x747 (= ud_1_9 false))))
(assert
 (let (($x747 (< makespan 12)))
 (=> $x747 (= ud_9_1 false))))
(assert
 (= (<= (+ x_0 7) x_9) lr_1_10))
(assert
 (= (<= (+ y_0 6) y_9) ud_1_10))
(assert
 (= (<= (+ x_9 3) x_0) lr_10_1))
(assert
 (= (<= (+ y_9 5) y_0) ud_10_1))
(assert
 (or lr_1_10 lr_10_1 ud_1_10 ud_10_1))
(assert
 (let (($x784 (< makespan 11)))
 (=> $x784 (= ud_1_10 false))))
(assert
 (let (($x784 (< makespan 11)))
 (=> $x784 (= ud_10_1 false))))
(assert
 (= (<= (+ x_0 7) x_10) lr_1_11))
(assert
 (= (<= (+ y_0 6) y_10) ud_1_11))
(assert
 (= (<= (+ x_10 3) x_0) lr_11_1))
(assert
 (= (<= (+ y_10 4) y_0) ud_11_1))
(assert
 (or lr_1_11 lr_11_1 ud_1_11 ud_11_1))
(assert
 (let (($x820 (< makespan 10)))
 (=> $x820 (= ud_1_11 false))))
(assert
 (let (($x820 (< makespan 10)))
 (=> $x820 (= ud_11_1 false))))
(assert
 (= (<= (+ x_0 7) x_11) lr_1_12))
(assert
 (= (<= (+ y_0 6) y_11) ud_1_12))
(assert
 (= (<= (+ x_11 3) x_0) lr_12_1))
(assert
 (= (<= (+ y_11 3) y_0) ud_12_1))
(assert
 (or lr_1_12 lr_12_1 ud_1_12 ud_12_1))
(assert
 (let (($x510 (< makespan 9)))
 (=> $x510 (= ud_1_12 false))))
(assert
 (let (($x510 (< makespan 9)))
 (=> $x510 (= ud_12_1 false))))
(assert
 (= (<= (+ x_1 7) x_2) lr_2_3))
(assert
 (= (<= (+ y_1 3) y_2) ud_2_3))
(assert
 (= (<= (+ x_2 4) x_1) lr_3_2))
(assert
 (= (<= (+ y_2 14) y_1) ud_3_2))
(assert
 (or lr_2_3 lr_3_2 ud_2_3 ud_3_2))
(assert
 (let (($x883 (< makespan 17)))
 (=> $x883 (= ud_2_3 false))))
(assert
 (let (($x883 (< makespan 17)))
 (=> $x883 (= ud_3_2 false))))
(assert
 (= (<= (+ x_1 7) x_3) lr_2_4))
(assert
 (= (<= (+ y_1 3) y_3) ud_2_4))
(assert
 (= (<= (+ x_3 4) x_1) lr_4_2))
(assert
 (= (<= (+ y_3 8) y_1) ud_4_2))
(assert
 (or lr_2_4 lr_4_2 ud_2_4 ud_4_2))
(assert
 (let (($x784 (< makespan 11)))
 (=> $x784 (= ud_2_4 false))))
(assert
 (let (($x784 (< makespan 11)))
 (=> $x784 (= ud_4_2 false))))
(assert
 (= (<= (+ x_1 7) x_4) lr_2_5))
(assert
 (= (<= (+ y_1 3) y_4) ud_2_5))
(assert
 (= (<= (+ x_4 4) x_1) lr_5_2))
(assert
 (= (<= (+ y_4 3) y_1) ud_5_2))
(assert
 (or lr_2_5 lr_5_2 ud_2_5 ud_5_2))
(assert
 (let (($x941 (< makespan 6)))
 (=> $x941 (= ud_2_5 false))))
(assert
 (let (($x941 (< makespan 6)))
 (=> $x941 (= ud_5_2 false))))
(assert
 (= (<= (+ x_1 7) x_5) lr_2_6))
(assert
 (= (<= (+ y_1 3) y_5) ud_2_6))
(assert
 (= (<= (+ x_5 3) x_1) lr_6_2))
(assert
 (= (<= (+ y_5 9) y_1) ud_6_2))
(assert
 (or lr_2_6 lr_6_2 ud_2_6 ud_6_2))
(assert
 (let (($x747 (< makespan 12)))
 (=> $x747 (= ud_2_6 false))))
(assert
 (let (($x747 (< makespan 12)))
 (=> $x747 (= ud_6_2 false))))
(assert
 (= (<= (+ x_1 7) x_6) lr_2_7))
(assert
 (= (<= (+ y_1 3) y_6) ud_2_7))
(assert
 (= (<= (+ x_6 3) x_1) lr_7_2))
(assert
 (= (<= (+ y_6 8) y_1) ud_7_2))
(assert
 (or lr_2_7 lr_7_2 ud_2_7 ud_7_2))
(assert
 (let (($x784 (< makespan 11)))
 (=> $x784 (= ud_2_7 false))))
(assert
 (let (($x784 (< makespan 11)))
 (=> $x784 (= ud_7_2 false))))
(assert
 (= (<= (+ x_1 7) x_7) lr_2_8))
(assert
 (= (<= (+ y_1 3) y_7) ud_2_8))
(assert
 (= (<= (+ x_7 3) x_1) lr_8_2))
(assert
 (= (<= (+ y_7 7) y_1) ud_8_2))
(assert
 (or lr_2_8 lr_8_2 ud_2_8 ud_8_2))
(assert
 (let (($x820 (< makespan 10)))
 (=> $x820 (= ud_2_8 false))))
(assert
 (let (($x820 (< makespan 10)))
 (=> $x820 (= ud_8_2 false))))
(assert
 (= (<= (+ x_1 7) x_8) lr_2_9))
(assert
 (= (<= (+ y_1 3) y_8) ud_2_9))
(assert
 (= (<= (+ x_8 3) x_1) lr_9_2))
(assert
 (= (<= (+ y_8 6) y_1) ud_9_2))
(assert
 (or lr_2_9 lr_9_2 ud_2_9 ud_9_2))
(assert
 (let (($x510 (< makespan 9)))
 (=> $x510 (= ud_2_9 false))))
(assert
 (let (($x510 (< makespan 9)))
 (=> $x510 (= ud_9_2 false))))
(assert
 (= (<= (+ x_1 7) x_9) lr_2_10))
(assert
 (= (<= (+ y_1 3) y_9) ud_2_10))
(assert
 (= (<= (+ x_9 3) x_1) lr_10_2))
(assert
 (= (<= (+ y_9 5) y_1) ud_10_2))
(assert
 (or lr_2_10 lr_10_2 ud_2_10 ud_10_2))
(assert
 (let (($x1082 (< makespan 8)))
 (=> $x1082 (= ud_2_10 false))))
(assert
 (let (($x1082 (< makespan 8)))
 (=> $x1082 (= ud_10_2 false))))
(assert
 (= (<= (+ x_1 7) x_10) lr_2_11))
(assert
 (= (<= (+ y_1 3) y_10) ud_2_11))
(assert
 (= (<= (+ x_10 3) x_1) lr_11_2))
(assert
 (= (<= (+ y_10 4) y_1) ud_11_2))
(assert
 (or lr_2_11 lr_11_2 ud_2_11 ud_11_2))
(assert
 (let (($x1115 (< makespan 7)))
 (=> $x1115 (= ud_2_11 false))))
(assert
 (let (($x1115 (< makespan 7)))
 (=> $x1115 (= ud_11_2 false))))
(assert
 (= (<= (+ x_1 7) x_11) lr_2_12))
(assert
 (= (<= (+ y_1 3) y_11) ud_2_12))
(assert
 (= (<= (+ x_11 3) x_1) lr_12_2))
(assert
 (= (<= (+ y_11 3) y_1) ud_12_2))
(assert
 (or lr_2_12 lr_12_2 ud_2_12 ud_12_2))
(assert
 (let (($x941 (< makespan 6)))
 (=> $x941 (= ud_2_12 false))))
(assert
 (let (($x941 (< makespan 6)))
 (=> $x941 (= ud_12_2 false))))
(assert
 (= (<= (+ x_2 4) x_3) lr_3_4))
(assert
 (= (<= (+ y_2 14) y_3) ud_3_4))
(assert
 (= (<= (+ x_3 4) x_2) lr_4_3))
(assert
 (= (<= (+ y_3 8) y_2) ud_4_3))
(assert
 (or lr_3_4 lr_4_3 ud_3_4 ud_4_3))
(assert
 (let (($x1176 (< makespan 22)))
 (=> $x1176 (= ud_3_4 false))))
(assert
 (let (($x148 (= ud_4_3 false)))
 (let (($x1176 (< makespan 22)))
 (=> $x1176 $x148))))
(assert
 (= (<= (+ x_2 4) x_4) lr_3_5))
(assert
 (= (<= (+ y_2 14) y_4) ud_3_5))
(assert
 (= (<= (+ x_4 4) x_2) lr_5_3))
(assert
 (= (<= (+ y_4 3) y_2) ud_5_3))
(assert
 (or lr_3_5 lr_5_3 ud_3_5 ud_5_3))
(assert
 (let (($x883 (< makespan 17)))
 (=> $x883 (= ud_3_5 false))))
(assert
 (let (($x883 (< makespan 17)))
 (=> $x883 (= ud_5_3 false))))
(assert
 (= (<= (+ x_2 4) x_5) lr_3_6))
(assert
 (= (<= (+ y_2 14) y_5) ud_3_6))
(assert
 (= (<= (+ x_5 3) x_2) lr_6_3))
(assert
 (= (<= (+ y_5 9) y_2) ud_6_3))
(assert
 (or lr_3_6 lr_6_3 ud_3_6 ud_6_3))
(assert
 (let (($x1234 (< makespan 23)))
 (=> $x1234 (= ud_3_6 false))))
(assert
 (let (($x91 (= ud_6_3 false)))
 (let (($x1234 (< makespan 23)))
 (=> $x1234 $x91))))
(assert
 (= (<= (+ x_2 4) x_6) lr_3_7))
(assert
 (= (<= (+ y_2 14) y_6) ud_3_7))
(assert
 (= (<= (+ x_6 3) x_2) lr_7_3))
(assert
 (= (<= (+ y_6 8) y_2) ud_7_3))
(assert
 (or lr_3_7 lr_7_3 ud_3_7 ud_7_3))
(assert
 (let (($x1176 (< makespan 22)))
 (=> $x1176 (= ud_3_7 false))))
(assert
 (let (($x39 (= ud_7_3 false)))
 (let (($x1176 (< makespan 22)))
 (=> $x1176 $x39))))
(assert
 (= (<= (+ x_2 4) x_7) lr_3_8))
(assert
 (= (<= (+ y_2 14) y_7) ud_3_8))
(assert
 (= (<= (+ x_7 3) x_2) lr_8_3))
(assert
 (= (<= (+ y_7 7) y_2) ud_8_3))
(assert
 (or lr_3_8 lr_8_3 ud_3_8 ud_8_3))
(assert
 (let (($x1290 (< makespan 21)))
 (=> $x1290 (= ud_3_8 false))))
(assert
 (let (($x433 (= ud_8_3 false)))
 (let (($x1290 (< makespan 21)))
 (=> $x1290 $x433))))
(assert
 (= (<= (+ x_2 4) x_8) lr_3_9))
(assert
 (= (<= (+ y_2 14) y_8) ud_3_9))
(assert
 (= (<= (+ x_8 3) x_2) lr_9_3))
(assert
 (= (<= (+ y_8 6) y_2) ud_9_3))
(assert
 (or lr_3_9 lr_9_3 ud_3_9 ud_9_3))
(assert
 (let (($x547 (< makespan 20)))
 (=> $x547 (= ud_3_9 false))))
(assert
 (let (($x446 (= ud_9_3 false)))
 (let (($x547 (< makespan 20)))
 (=> $x547 $x446))))
(assert
 (= (<= (+ x_2 4) x_9) lr_3_10))
(assert
 (= (<= (+ y_2 14) y_9) ud_3_10))
(assert
 (= (<= (+ x_9 3) x_2) lr_10_3))
(assert
 (= (<= (+ y_9 5) y_2) ud_10_3))
(assert
 (or lr_3_10 lr_10_3 ud_3_10 ud_10_3))
(assert
 (let (($x1346 (< makespan 19)))
 (=> $x1346 (= ud_3_10 false))))
(assert
 (let (($x459 (= ud_10_3 false)))
 (let (($x1346 (< makespan 19)))
 (=> $x1346 $x459))))
(assert
 (= (<= (+ x_2 4) x_10) lr_3_11))
(assert
 (= (<= (+ y_2 14) y_10) ud_3_11))
(assert
 (= (<= (+ x_10 3) x_2) lr_11_3))
(assert
 (= (<= (+ y_10 4) y_2) ud_11_3))
(assert
 (or lr_3_11 lr_11_3 ud_3_11 ud_11_3))
(assert
 (let (($x1376 (< makespan 18)))
 (=> $x1376 (= ud_3_11 false))))
(assert
 (let (($x1376 (< makespan 18)))
 (=> $x1376 (= ud_11_3 false))))
(assert
 (= (<= (+ x_2 4) x_11) lr_3_12))
(assert
 (= (<= (+ y_2 14) y_11) ud_3_12))
(assert
 (= (<= (+ x_11 3) x_2) lr_12_3))
(assert
 (= (<= (+ y_11 3) y_2) ud_12_3))
(assert
 (or lr_3_12 lr_12_3 ud_3_12 ud_12_3))
(assert
 (let (($x883 (< makespan 17)))
 (=> $x883 (= ud_3_12 false))))
(assert
 (let (($x883 (< makespan 17)))
 (=> $x883 (= ud_12_3 false))))
(assert
 (= (<= (+ x_3 4) x_4) lr_4_5))
(assert
 (= (<= (+ y_3 8) y_4) ud_4_5))
(assert
 (= (<= (+ x_4 4) x_3) lr_5_4))
(assert
 (= (<= (+ y_4 3) y_3) ud_5_4))
(assert
 (or lr_4_5 lr_5_4 ud_4_5 ud_5_4))
(assert
 (let (($x784 (< makespan 11)))
 (=> $x784 (= ud_4_5 false))))
(assert
 (let (($x784 (< makespan 11)))
 (=> $x784 (= ud_5_4 false))))
(assert
 (= (<= (+ x_3 4) x_5) lr_4_6))
(assert
 (= (<= (+ y_3 8) y_5) ud_4_6))
(assert
 (= (<= (+ x_5 3) x_3) lr_6_4))
(assert
 (= (<= (+ y_5 9) y_3) ud_6_4))
(assert
 (or lr_4_6 lr_6_4 ud_4_6 ud_6_4))
(assert
 (let (($x883 (< makespan 17)))
 (=> $x883 (= ud_4_6 false))))
(assert
 (let (($x883 (< makespan 17)))
 (=> $x883 (= ud_6_4 false))))
(assert
 (= (<= (+ x_3 4) x_6) lr_4_7))
(assert
 (= (<= (+ y_3 8) y_6) ud_4_7))
(assert
 (= (<= (+ x_6 3) x_3) lr_7_4))
(assert
 (= (<= (+ y_6 8) y_3) ud_7_4))
(assert
 (or lr_4_7 lr_7_4 ud_4_7 ud_7_4))
(assert
 (let (($x1490 (< makespan 16)))
 (=> $x1490 (= ud_4_7 false))))
(assert
 (let (($x1490 (< makespan 16)))
 (=> $x1490 (= ud_7_4 false))))
(assert
 (= (<= (+ x_3 4) x_7) lr_4_8))
(assert
 (= (<= (+ y_3 8) y_7) ud_4_8))
(assert
 (= (<= (+ x_7 3) x_3) lr_8_4))
(assert
 (= (<= (+ y_7 7) y_3) ud_8_4))
(assert
 (or lr_4_8 lr_8_4 ud_4_8 ud_8_4))
(assert
 (let (($x646 (< makespan 15)))
 (=> $x646 (= ud_4_8 false))))
(assert
 (let (($x646 (< makespan 15)))
 (=> $x646 (= ud_8_4 false))))
(assert
 (= (<= (+ x_3 4) x_8) lr_4_9))
(assert
 (= (<= (+ y_3 8) y_8) ud_4_9))
(assert
 (= (<= (+ x_8 3) x_3) lr_9_4))
(assert
 (= (<= (+ y_8 6) y_3) ud_9_4))
(assert
 (or lr_4_9 lr_9_4 ud_4_9 ud_9_4))
(assert
 (let (($x581 (< makespan 14)))
 (=> $x581 (= ud_4_9 false))))
(assert
 (let (($x581 (< makespan 14)))
 (=> $x581 (= ud_9_4 false))))
(assert
 (= (<= (+ x_3 4) x_9) lr_4_10))
(assert
 (= (<= (+ y_3 8) y_9) ud_4_10))
(assert
 (= (<= (+ x_9 3) x_3) lr_10_4))
(assert
 (= (<= (+ y_9 5) y_3) ud_10_4))
(assert
 (or lr_4_10 lr_10_4 ud_4_10 ud_10_4))
(assert
 (let (($x711 (< makespan 13)))
 (=> $x711 (= ud_4_10 false))))
(assert
 (let (($x711 (< makespan 13)))
 (=> $x711 (= ud_10_4 false))))
(assert
 (= (<= (+ x_3 4) x_10) lr_4_11))
(assert
 (= (<= (+ y_3 8) y_10) ud_4_11))
(assert
 (= (<= (+ x_10 3) x_3) lr_11_4))
(assert
 (= (<= (+ y_10 4) y_3) ud_11_4))
(assert
 (or lr_4_11 lr_11_4 ud_4_11 ud_11_4))
(assert
 (let (($x747 (< makespan 12)))
 (=> $x747 (= ud_4_11 false))))
(assert
 (let (($x747 (< makespan 12)))
 (=> $x747 (= ud_11_4 false))))
(assert
 (= (<= (+ x_3 4) x_11) lr_4_12))
(assert
 (= (<= (+ y_3 8) y_11) ud_4_12))
(assert
 (= (<= (+ x_11 3) x_3) lr_12_4))
(assert
 (= (<= (+ y_11 3) y_3) ud_12_4))
(assert
 (or lr_4_12 lr_12_4 ud_4_12 ud_12_4))
(assert
 (let (($x784 (< makespan 11)))
 (=> $x784 (= ud_4_12 false))))
(assert
 (let (($x784 (< makespan 11)))
 (=> $x784 (= ud_12_4 false))))
(assert
 (= (<= (+ x_4 4) x_5) lr_5_6))
(assert
 (= (<= (+ y_4 3) y_5) ud_5_6))
(assert
 (= (<= (+ x_5 3) x_4) lr_6_5))
(assert
 (= (<= (+ y_5 9) y_4) ud_6_5))
(assert
 (or lr_5_6 lr_6_5 ud_5_6 ud_6_5))
(assert
 (let (($x747 (< makespan 12)))
 (=> $x747 (= ud_5_6 false))))
(assert
 (let (($x747 (< makespan 12)))
 (=> $x747 (= ud_6_5 false))))
(assert
 (= (<= (+ x_4 4) x_6) lr_5_7))
(assert
 (= (<= (+ y_4 3) y_6) ud_5_7))
(assert
 (= (<= (+ x_6 3) x_4) lr_7_5))
(assert
 (= (<= (+ y_6 8) y_4) ud_7_5))
(assert
 (or lr_5_7 lr_7_5 ud_5_7 ud_7_5))
(assert
 (let (($x784 (< makespan 11)))
 (=> $x784 (= ud_5_7 false))))
(assert
 (let (($x784 (< makespan 11)))
 (=> $x784 (= ud_7_5 false))))
(assert
 (= (<= (+ x_4 4) x_7) lr_5_8))
(assert
 (= (<= (+ y_4 3) y_7) ud_5_8))
(assert
 (= (<= (+ x_7 3) x_4) lr_8_5))
(assert
 (= (<= (+ y_7 7) y_4) ud_8_5))
(assert
 (or lr_5_8 lr_8_5 ud_5_8 ud_8_5))
(assert
 (let (($x820 (< makespan 10)))
 (=> $x820 (= ud_5_8 false))))
(assert
 (let (($x820 (< makespan 10)))
 (=> $x820 (= ud_8_5 false))))
(assert
 (= (<= (+ x_4 4) x_8) lr_5_9))
(assert
 (= (<= (+ y_4 3) y_8) ud_5_9))
(assert
 (= (<= (+ x_8 3) x_4) lr_9_5))
(assert
 (= (<= (+ y_8 6) y_4) ud_9_5))
(assert
 (or lr_5_9 lr_9_5 ud_5_9 ud_9_5))
(assert
 (let (($x510 (< makespan 9)))
 (=> $x510 (= ud_5_9 false))))
(assert
 (let (($x510 (< makespan 9)))
 (=> $x510 (= ud_9_5 false))))
(assert
 (= (<= (+ x_4 4) x_9) lr_5_10))
(assert
 (= (<= (+ y_4 3) y_9) ud_5_10))
(assert
 (= (<= (+ x_9 3) x_4) lr_10_5))
(assert
 (= (<= (+ y_9 5) y_4) ud_10_5))
(assert
 (or lr_5_10 lr_10_5 ud_5_10 ud_10_5))
(assert
 (let (($x1082 (< makespan 8)))
 (=> $x1082 (= ud_5_10 false))))
(assert
 (let (($x1082 (< makespan 8)))
 (=> $x1082 (= ud_10_5 false))))
(assert
 (= (<= (+ x_4 4) x_10) lr_5_11))
(assert
 (= (<= (+ y_4 3) y_10) ud_5_11))
(assert
 (= (<= (+ x_10 3) x_4) lr_11_5))
(assert
 (= (<= (+ y_10 4) y_4) ud_11_5))
(assert
 (or lr_5_11 lr_11_5 ud_5_11 ud_11_5))
(assert
 (let (($x1115 (< makespan 7)))
 (=> $x1115 (= ud_5_11 false))))
(assert
 (let (($x1115 (< makespan 7)))
 (=> $x1115 (= ud_11_5 false))))
(assert
 (= (<= (+ x_4 4) x_11) lr_5_12))
(assert
 (= (<= (+ y_4 3) y_11) ud_5_12))
(assert
 (= (<= (+ x_11 3) x_4) lr_12_5))
(assert
 (= (<= (+ y_11 3) y_4) ud_12_5))
(assert
 (or lr_5_12 lr_12_5 ud_5_12 ud_12_5))
(assert
 (let (($x941 (< makespan 6)))
 (=> $x941 (= ud_5_12 false))))
(assert
 (let (($x941 (< makespan 6)))
 (=> $x941 (= ud_12_5 false))))
(assert
 (= (<= (+ x_5 3) x_6) lr_6_7))
(assert
 (= (<= (+ y_5 9) y_6) ud_6_7))
(assert
 (= (<= (+ x_6 3) x_5) lr_7_6))
(assert
 (= (<= (+ y_6 8) y_5) ud_7_6))
(assert
 (or lr_6_7 lr_7_6 ud_6_7 ud_7_6))
(assert
 (let (($x883 (< makespan 17)))
 (=> $x883 (= ud_6_7 false))))
(assert
 (let (($x883 (< makespan 17)))
 (=> $x883 (= ud_7_6 false))))
(assert
 (= (<= (+ x_5 3) x_7) lr_6_8))
(assert
 (= (<= (+ y_5 9) y_7) ud_6_8))
(assert
 (= (<= (+ x_7 3) x_5) lr_8_6))
(assert
 (= (<= (+ y_7 7) y_5) ud_8_6))
(assert
 (or lr_6_8 lr_8_6 ud_6_8 ud_8_6))
(assert
 (let (($x1490 (< makespan 16)))
 (=> $x1490 (= ud_6_8 false))))
(assert
 (let (($x1490 (< makespan 16)))
 (=> $x1490 (= ud_8_6 false))))
(assert
 (= (<= (+ x_5 3) x_8) lr_6_9))
(assert
 (= (<= (+ y_5 9) y_8) ud_6_9))
(assert
 (= (<= (+ x_8 3) x_5) lr_9_6))
(assert
 (= (<= (+ y_8 6) y_5) ud_9_6))
(assert
 (or lr_6_9 lr_9_6 ud_6_9 ud_9_6))
(assert
 (let (($x646 (< makespan 15)))
 (=> $x646 (= ud_6_9 false))))
(assert
 (let (($x646 (< makespan 15)))
 (=> $x646 (= ud_9_6 false))))
(assert
 (= (<= (+ x_5 3) x_9) lr_6_10))
(assert
 (= (<= (+ y_5 9) y_9) ud_6_10))
(assert
 (= (<= (+ x_9 3) x_5) lr_10_6))
(assert
 (= (<= (+ y_9 5) y_5) ud_10_6))
(assert
 (or lr_6_10 lr_10_6 ud_6_10 ud_10_6))
(assert
 (let (($x581 (< makespan 14)))
 (=> $x581 (= ud_6_10 false))))
(assert
 (let (($x581 (< makespan 14)))
 (=> $x581 (= ud_10_6 false))))
(assert
 (= (<= (+ x_5 3) x_10) lr_6_11))
(assert
 (= (<= (+ y_5 9) y_10) ud_6_11))
(assert
 (= (<= (+ x_10 3) x_5) lr_11_6))
(assert
 (= (<= (+ y_10 4) y_5) ud_11_6))
(assert
 (or lr_6_11 lr_11_6 ud_6_11 ud_11_6))
(assert
 (let (($x711 (< makespan 13)))
 (=> $x711 (= ud_6_11 false))))
(assert
 (let (($x711 (< makespan 13)))
 (=> $x711 (= ud_11_6 false))))
(assert
 (= (<= (+ x_5 3) x_11) lr_6_12))
(assert
 (= (<= (+ y_5 9) y_11) ud_6_12))
(assert
 (= (<= (+ x_11 3) x_5) lr_12_6))
(assert
 (= (<= (+ y_11 3) y_5) ud_12_6))
(assert
 (or lr_6_12 lr_12_6 ud_6_12 ud_12_6))
(assert
 (let (($x747 (< makespan 12)))
 (=> $x747 (= ud_6_12 false))))
(assert
 (let (($x747 (< makespan 12)))
 (=> $x747 (= ud_12_6 false))))
(assert
 (= (<= (+ x_6 3) x_7) lr_7_8))
(assert
 (= (<= (+ y_6 8) y_7) ud_7_8))
(assert
 (= (<= (+ x_7 3) x_6) lr_8_7))
(assert
 (= (<= (+ y_7 7) y_6) ud_8_7))
(assert
 (or lr_7_8 lr_8_7 ud_7_8 ud_8_7))
(assert
 (let (($x646 (< makespan 15)))
 (=> $x646 (= ud_7_8 false))))
(assert
 (let (($x646 (< makespan 15)))
 (=> $x646 (= ud_8_7 false))))
(assert
 (= (<= (+ x_6 3) x_8) lr_7_9))
(assert
 (= (<= (+ y_6 8) y_8) ud_7_9))
(assert
 (= (<= (+ x_8 3) x_6) lr_9_7))
(assert
 (= (<= (+ y_8 6) y_6) ud_9_7))
(assert
 (or lr_7_9 lr_9_7 ud_7_9 ud_9_7))
(assert
 (let (($x581 (< makespan 14)))
 (=> $x581 (= ud_7_9 false))))
(assert
 (let (($x581 (< makespan 14)))
 (=> $x581 (= ud_9_7 false))))
(assert
 (= (<= (+ x_6 3) x_9) lr_7_10))
(assert
 (= (<= (+ y_6 8) y_9) ud_7_10))
(assert
 (= (<= (+ x_9 3) x_6) lr_10_7))
(assert
 (= (<= (+ y_9 5) y_6) ud_10_7))
(assert
 (or lr_7_10 lr_10_7 ud_7_10 ud_10_7))
(assert
 (let (($x711 (< makespan 13)))
 (=> $x711 (= ud_7_10 false))))
(assert
 (let (($x711 (< makespan 13)))
 (=> $x711 (= ud_10_7 false))))
(assert
 (= (<= (+ x_6 3) x_10) lr_7_11))
(assert
 (= (<= (+ y_6 8) y_10) ud_7_11))
(assert
 (= (<= (+ x_10 3) x_6) lr_11_7))
(assert
 (= (<= (+ y_10 4) y_6) ud_11_7))
(assert
 (or lr_7_11 lr_11_7 ud_7_11 ud_11_7))
(assert
 (let (($x747 (< makespan 12)))
 (=> $x747 (= ud_7_11 false))))
(assert
 (let (($x747 (< makespan 12)))
 (=> $x747 (= ud_11_7 false))))
(assert
 (= (<= (+ x_6 3) x_11) lr_7_12))
(assert
 (= (<= (+ y_6 8) y_11) ud_7_12))
(assert
 (= (<= (+ x_11 3) x_6) lr_12_7))
(assert
 (= (<= (+ y_11 3) y_6) ud_12_7))
(assert
 (or lr_7_12 lr_12_7 ud_7_12 ud_12_7))
(assert
 (let (($x784 (< makespan 11)))
 (=> $x784 (= ud_7_12 false))))
(assert
 (let (($x784 (< makespan 11)))
 (=> $x784 (= ud_12_7 false))))
(assert
 (= (<= (+ x_7 3) x_8) lr_8_9))
(assert
 (= (<= (+ y_7 7) y_8) ud_8_9))
(assert
 (= (<= (+ x_8 3) x_7) lr_9_8))
(assert
 (= (<= (+ y_8 6) y_7) ud_9_8))
(assert
 (or lr_8_9 lr_9_8 ud_8_9 ud_9_8))
(assert
 (let (($x711 (< makespan 13)))
 (=> $x711 (= ud_8_9 false))))
(assert
 (let (($x711 (< makespan 13)))
 (=> $x711 (= ud_9_8 false))))
(assert
 (= (<= (+ x_7 3) x_9) lr_8_10))
(assert
 (= (<= (+ y_7 7) y_9) ud_8_10))
(assert
 (= (<= (+ x_9 3) x_7) lr_10_8))
(assert
 (= (<= (+ y_9 5) y_7) ud_10_8))
(assert
 (or lr_8_10 lr_10_8 ud_8_10 ud_10_8))
(assert
 (let (($x747 (< makespan 12)))
 (=> $x747 (= ud_8_10 false))))
(assert
 (let (($x747 (< makespan 12)))
 (=> $x747 (= ud_10_8 false))))
(assert
 (= (<= (+ x_7 3) x_10) lr_8_11))
(assert
 (= (<= (+ y_7 7) y_10) ud_8_11))
(assert
 (= (<= (+ x_10 3) x_7) lr_11_8))
(assert
 (= (<= (+ y_10 4) y_7) ud_11_8))
(assert
 (or lr_8_11 lr_11_8 ud_8_11 ud_11_8))
(assert
 (let (($x784 (< makespan 11)))
 (=> $x784 (= ud_8_11 false))))
(assert
 (let (($x784 (< makespan 11)))
 (=> $x784 (= ud_11_8 false))))
(assert
 (= (<= (+ x_7 3) x_11) lr_8_12))
(assert
 (= (<= (+ y_7 7) y_11) ud_8_12))
(assert
 (= (<= (+ x_11 3) x_7) lr_12_8))
(assert
 (= (<= (+ y_11 3) y_7) ud_12_8))
(assert
 (or lr_8_12 lr_12_8 ud_8_12 ud_12_8))
(assert
 (let (($x820 (< makespan 10)))
 (=> $x820 (= ud_8_12 false))))
(assert
 (let (($x820 (< makespan 10)))
 (=> $x820 (= ud_12_8 false))))
(assert
 (= (<= (+ x_8 3) x_9) lr_9_10))
(assert
 (= (<= (+ y_8 6) y_9) ud_9_10))
(assert
 (= (<= (+ x_9 3) x_8) lr_10_9))
(assert
 (= (<= (+ y_9 5) y_8) ud_10_9))
(assert
 (or lr_9_10 lr_10_9 ud_9_10 ud_10_9))
(assert
 (let (($x784 (< makespan 11)))
 (=> $x784 (= ud_9_10 false))))
(assert
 (let (($x784 (< makespan 11)))
 (=> $x784 (= ud_10_9 false))))
(assert
 (= (<= (+ x_8 3) x_10) lr_9_11))
(assert
 (= (<= (+ y_8 6) y_10) ud_9_11))
(assert
 (= (<= (+ x_10 3) x_8) lr_11_9))
(assert
 (= (<= (+ y_10 4) y_8) ud_11_9))
(assert
 (or lr_9_11 lr_11_9 ud_9_11 ud_11_9))
(assert
 (let (($x820 (< makespan 10)))
 (=> $x820 (= ud_9_11 false))))
(assert
 (let (($x820 (< makespan 10)))
 (=> $x820 (= ud_11_9 false))))
(assert
 (= (<= (+ x_8 3) x_11) lr_9_12))
(assert
 (= (<= (+ y_8 6) y_11) ud_9_12))
(assert
 (= (<= (+ x_11 3) x_8) lr_12_9))
(assert
 (= (<= (+ y_11 3) y_8) ud_12_9))
(assert
 (or lr_9_12 lr_12_9 ud_9_12 ud_12_9))
(assert
 (let (($x510 (< makespan 9)))
 (=> $x510 (= ud_9_12 false))))
(assert
 (let (($x510 (< makespan 9)))
 (=> $x510 (= ud_12_9 false))))
(assert
 (= (<= (+ x_9 3) x_10) lr_10_11))
(assert
 (= (<= (+ y_9 5) y_10) ud_10_11))
(assert
 (= (<= (+ x_10 3) x_9) lr_11_10))
(assert
 (= (<= (+ y_10 4) y_9) ud_11_10))
(assert
 (or lr_10_11 lr_11_10 ud_10_11 ud_11_10))
(assert
 (let (($x510 (< makespan 9)))
 (=> $x510 (= ud_10_11 false))))
(assert
 (let (($x510 (< makespan 9)))
 (=> $x510 (= ud_11_10 false))))
(assert
 (= (<= (+ x_9 3) x_11) lr_10_12))
(assert
 (= (<= (+ y_9 5) y_11) ud_10_12))
(assert
 (= (<= (+ x_11 3) x_9) lr_12_10))
(assert
 (= (<= (+ y_11 3) y_9) ud_12_10))
(assert
 (or lr_10_12 lr_12_10 ud_10_12 ud_12_10))
(assert
 (let (($x1082 (< makespan 8)))
 (=> $x1082 (= ud_10_12 false))))
(assert
 (let (($x1082 (< makespan 8)))
 (=> $x1082 (= ud_12_10 false))))
(assert
 (= (<= (+ x_10 3) x_11) lr_11_12))
(assert
 (= (<= (+ y_10 4) y_11) ud_11_12))
(assert
 (= (<= (+ x_11 3) x_10) lr_12_11))
(assert
 (= (<= (+ y_11 3) y_10) ud_12_11))
(assert
 (or lr_11_12 lr_12_11 ud_11_12 ud_12_11))
(assert
 (let (($x1115 (< makespan 7)))
 (=> $x1115 (= ud_11_12 false))))
(assert
 (let (($x1115 (< makespan 7)))
 (=> $x1115 (= ud_12_11 false))))
(check-sat)
